CPXPARAM_Emphasis_MIP#P8#1#CPXPARAM_MIP_Strategy_Probe#P42#0#0.563446#0.137683
CPXPARAM_Emphasis_MIP#P8#1#CPXPARAM_MIP_Strategy_Probe#P42#1#4.092331#1.000000
CPXPARAM_Emphasis_MIP#P8#2#CPXPARAM_MIP_Strategy_Probe#P42#1#3.207429#0.783766
CPXPARAM_Emphasis_MIP#P8#3#CPXPARAM_MIP_Strategy_Probe#P42#1#3.782740#0.924349
CPXPARAM_Emphasis_MIP#P8#4#CPXPARAM_MIP_Strategy_Probe#P42#1#0.748731#0.182959
CPXPARAM_Emphasis_MIP#P8#4#CPXPARAM_MIP_Strategy_Probe#P42#2#4.037192#0.986526
CPXPARAM_Emphasis_MIP#P8#4#CPXPARAM_MIP_Strategy_Probe#P42#3#3.782904#0.924389
CPXPARAM_Emphasis_MIP#P8#5#CPXPARAM_MIP_Strategy_Probe#P42#0#3.782583#0.924310
CPXPARAM_Emphasis_MIP#P8#5#CPXPARAM_MIP_Strategy_Probe#P42#1#3.653206#0.892696
